
Gurobi 9.1.2 (win64) logging started Tue Dec  7 13:15:23 2021

Gurobi Optimizer version 9.1.2 build v9.1.2rc0 (win64)
Thread count: 8 physical cores, 8 logical processors, using up to 8 threads
Optimize a model with 1 rows, 26 columns and 25 nonzeros
Model fingerprint: 0x64272a88
Variable types: 1 continuous, 25 integer (25 binary)
Coefficient statistics:
  Matrix range     [1e+00, 1e+01]
  Objective range  [1e+00, 1e+00]
  Bounds range     [6e+00, 6e+00]
  RHS range        [1e+01, 1e+01]
Presolve time: 0.00s
Presolved: 1 rows, 26 columns, 25 nonzeros
Variable types: 1 continuous, 25 integer (25 binary)

Root simplex log...

Iteration    Objective       Primal Inf.    Dual Inf.      Time
       0   -6.0307205e+00   5.305843e-02   0.000000e+00     14s
       3   -6.0307205e+00   0.000000e+00   0.000000e+00     14s

Root relaxation: objective -6.030720e+00, 3 iterations, 0.00 seconds

    Nodes    |    Current Node    |     Objective Bounds      |     Work
 Expl Unexpl |  Obj  Depth IntInf | Incumbent    BestBd   Gap | It/Node Time

*    0     0               0      -6.0307205   -6.03072  0.00%     -   14s

Cutting planes:
  Lazy constraints: 3

Explored 0 nodes (5 simplex iterations) in 14.50 seconds
Thread count was 8 (of 8 available processors)

Solution count 1: -6.03072 
No other solutions better than -6.03072

Optimal solution found (tolerance 1.00e-04)
Best objective -6.030720460947e+00, best bound -6.030720460947e+00, gap 0.0000%

User-callback calls 74, time in user-callback 18.23 sec
